TOUR_SECTION
121
150
172
86
148
124
73
57
173
143
157
128
63
3
179
126
49
141
170
44
135
24
87
136
22
137
35
39
69
142
92
110
171
113
174
96
71
77
58
59
162
144
146
11
192
155
190
70
53
95
55
10
194
5
12
61
105
122
123
164
186
108
118
116
94
130
41
54
25
133
163
32
99
198
19
7
64
30
119
112
47
149
2
97
175
76
62
103
50
46
153
13
29
88
134
83
79
109
42
26
156
80
14
104
200
199
197
168
159
68
38
20
4
31
27
6
8
45
189
89
40
17
81
169
114
15
66
16
75
139
1
28
74
100
67
51
9
158
102
107
98
117
101
111
182
115
43
23
154
178
91
187
56
36
193
188
138
183
160
132
165
184
33
167
185
127
90
125
181
85
72
48
140
93
129
131
152
166
21
18
52
60
78
191
34
147
120
177
176
195
106
82
37
180
145
161
65
151
196
84
-1
EOF